(set-option :produce-models true)
(set-logic QF_LRA)
(set-info :notes | Strip-packing problem.|)
(declare-fun x0 () Real)
(declare-fun y0 () Real)
(declare-fun x1 () Real)
(declare-fun y1 () Real)
(declare-fun x2 () Real)
(declare-fun y2 () Real)
(declare-fun x3 () Real)
(declare-fun y3 () Real)
(declare-fun x4 () Real)
(declare-fun y4 () Real)
(declare-fun x5 () Real)
(declare-fun y5 () Real)
(declare-fun x6 () Real)
(declare-fun y6 () Real)
(declare-fun x7 () Real)
(declare-fun y7 () Real)
(declare-fun x8 () Real)
(declare-fun y8 () Real)
(declare-fun x9 () Real)
(declare-fun y9 () Real)
(declare-fun x10 () Real)
(declare-fun y10 () Real)
(declare-fun x11 () Real)
(declare-fun y11 () Real)
(declare-fun x12 () Real)
(declare-fun y12 () Real)
(declare-fun x13 () Real)
(declare-fun y13 () Real)
(declare-fun x14 () Real)
(declare-fun y14 () Real)
(declare-fun z () Real)
(declare-fun c () Real)
(assert (and (= c z) (and (>= x0 0) 
(and (>= y0 0) 
(and (>= x1 0) 
(and (>= y1 0) 
(and (>= x2 0) 
(and (>= y2 0) 
(and (>= x3 0) 
(and (>= y3 0) 
(and (>= x4 0) 
(and (>= y4 0) 
(and (>= x5 0) 
(and (>= y5 0) 
(and (>= x6 0) 
(and (>= y6 0) 
(and (>= x7 0) 
(and (>= y7 0) 
(and (>= x8 0) 
(and (>= y8 0) 
(and (>= x9 0) 
(and (>= y9 0) 
(and (>= x10 0) 
(and (>= y10 0) 
(and (>= x11 0) 
(and (>= y11 0) 
(and (>= x12 0) 
(and (>= y12 0) 
(and (>= x13 0) 
(and (>= y13 0) 
(and (>= x14 0) 
(and (>= y14 0) 
(and (>= z 0) 
(and (>= c 0) 
(and (<= (+ x0 0.5664811894) z) 
(and (<= 0.8558319798 y0) 
(and (<= y0 1.9364916731) 
(and (<= x0 (- 2.9845892453 0.5664811894)) 
(and (>= x0 0) 
(and (<= (+ x1 0.3720168499) z) 
(and (<= 0.8213149698 y1) 
(and (<= y1 1.9364916731) 
(and (<= x1 (- 2.9845892453 0.3720168499)) 
(and (>= x1 0) 
(and (<= (+ x2 0.2871063082) z) 
(and (<= 0.7412308572 y2) 
(and (<= y2 1.9364916731) 
(and (<= x2 (- 2.9845892453 0.2871063082)) 
(and (>= x2 0) 
(and (<= (+ x3 0.2712745785) z) 
(and (<= 0.7035296864 y3) 
(and (<= y3 1.9364916731) 
(and (<= x3 (- 2.9845892453 0.2712745785)) 
(and (>= x3 0) 
(and (<= (+ x4 0.1902572445) z) 
(and (<= 0.6793844305 y4) 
(and (<= y4 1.9364916731) 
(and (<= x4 (- 2.9845892453 0.1902572445)) 
(and (>= x4 0) 
(and (<= (+ x5 0.5944999571) z) 
(and (<= 0.6702004524 y5) 
(and (<= y5 1.9364916731) 
(and (<= x5 (- 2.9845892453 0.5944999571)) 
(and (>= x5 0) 
(and (<= (+ x6 0.3652203145) z) 
(and (<= 0.662452638 y6) 
(and (<= y6 1.9364916731) 
(and (<= x6 (- 2.9845892453 0.3652203145)) 
(and (>= x6 0) 
(and (<= (+ x7 0.5138328272) z) 
(and (<= 0.6406551297 y7) 
(and (<= y7 1.9364916731) 
(and (<= x7 (- 2.9845892453 0.5138328272)) 
(and (>= x7 0) 
(and (<= (+ x8 0.505512564) z) 
(and (<= 0.4433082699 y8) 
(and (<= y8 1.9364916731) 
(and (<= x8 (- 2.9845892453 0.505512564)) 
(and (>= x8 0) 
(and (<= (+ x9 0.8324117189) z) 
(and (<= 0.3682028427 y9) 
(and (<= y9 1.9364916731) 
(and (<= x9 (- 2.9845892453 0.8324117189)) 
(and (>= x9 0) 
(and (<= (+ x10 0.1062206365) z) 
(and (<= 0.3111864173 y10) 
(and (<= y10 1.9364916731) 
(and (<= x10 (- 2.9845892453 0.1062206365)) 
(and (>= x10 0) 
(and (<= (+ x11 0.6790325209) z) 
(and (<= 0.3068331627 y11) 
(and (<= y11 1.9364916731) 
(and (<= x11 (- 2.9845892453 0.6790325209)) 
(and (>= x11 0) 
(and (<= (+ x12 0.3820422413) z) 
(and (<= 0.2388430996 y12) 
(and (<= y12 1.9364916731) 
(and (<= x12 (- 2.9845892453 0.3820422413)) 
(and (>= x12 0) 
(and (<= (+ x13 0.6596612972) z) 
(and (<= 0.0212762407 y13) 
(and (<= y13 1.9364916731) 
(and (<= x13 (- 2.9845892453 0.6596612972)) 
(and (>= x13 0) 
(and (<= (+ x14 0.7082317193) z) 
(and (<= 0.0192467805 y14) 
(and (<= y14 1.9364916731) 
(and (<= x14 (- 2.9845892453 0.7082317193)) 
(and (>= x14 0) 
(and (<= c 2.9845892453) 
(and (or (<= (+ x0 0.5664811894) x1) (or (<= (+ x1 0.3720168499) x0) (or (>= (- y0 0.8558319798) y1) (or (>= (- y1 0.8213149698) y0))))) 
(and (or (<= (+ x0 0.5664811894) x2) (or (<= (+ x2 0.2871063082) x0) (or (>= (- y0 0.8558319798) y2) (or (>= (- y2 0.7412308572) y0))))) 
(and (or (<= (+ x0 0.5664811894) x3) (or (<= (+ x3 0.2712745785) x0) (or (>= (- y0 0.8558319798) y3) (or (>= (- y3 0.7035296864) y0))))) 
(and (or (<= (+ x0 0.5664811894) x4) (or (<= (+ x4 0.1902572445) x0) (or (>= (- y0 0.8558319798) y4) (or (>= (- y4 0.6793844305) y0))))) 
(and (or (<= (+ x0 0.5664811894) x5) (or (<= (+ x5 0.5944999571) x0) (or (>= (- y0 0.8558319798) y5) (or (>= (- y5 0.6702004524) y0))))) 
(and (or (<= (+ x0 0.5664811894) x6) (or (<= (+ x6 0.3652203145) x0) (or (>= (- y0 0.8558319798) y6) (or (>= (- y6 0.662452638) y0))))) 
(and (or (<= (+ x0 0.5664811894) x7) (or (<= (+ x7 0.5138328272) x0) (or (>= (- y0 0.8558319798) y7) (or (>= (- y7 0.6406551297) y0))))) 
(and (or (<= (+ x0 0.5664811894) x8) (or (<= (+ x8 0.505512564) x0) (or (>= (- y0 0.8558319798) y8) (or (>= (- y8 0.4433082699) y0))))) 
(and (or (<= (+ x0 0.5664811894) x9) (or (<= (+ x9 0.8324117189) x0) (or (>= (- y0 0.8558319798) y9) (or (>= (- y9 0.3682028427) y0))))) 
(and (or (<= (+ x0 0.5664811894) x10) (or (<= (+ x10 0.1062206365) x0) (or (>= (- y0 0.8558319798) y10) (or (>= (- y10 0.3111864173) y0))))) 
(and (or (<= (+ x0 0.5664811894) x11) (or (<= (+ x11 0.6790325209) x0) (or (>= (- y0 0.8558319798) y11) (or (>= (- y11 0.3068331627) y0))))) 
(and (or (<= (+ x0 0.5664811894) x12) (or (<= (+ x12 0.3820422413) x0) (or (>= (- y0 0.8558319798) y12) (or (>= (- y12 0.2388430996) y0))))) 
(and (or (<= (+ x0 0.5664811894) x13) (or (<= (+ x13 0.6596612972) x0) (or (>= (- y0 0.8558319798) y13) (or (>= (- y13 0.0212762407) y0))))) 
(and (or (<= (+ x0 0.5664811894) x14) (or (<= (+ x14 0.7082317193) x0) (or (>= (- y0 0.8558319798) y14) (or (>= (- y14 0.0192467805) y0))))) 
(and (or (<= (+ x1 0.3720168499) x2) (or (<= (+ x2 0.2871063082) x1) (or (>= (- y1 0.8213149698) y2) (or (>= (- y2 0.7412308572) y1))))) 
(and (or (<= (+ x1 0.3720168499) x3) (or (<= (+ x3 0.2712745785) x1) (or (>= (- y1 0.8213149698) y3) (or (>= (- y3 0.7035296864) y1))))) 
(and (or (<= (+ x1 0.3720168499) x4) (or (<= (+ x4 0.1902572445) x1) (or (>= (- y1 0.8213149698) y4) (or (>= (- y4 0.6793844305) y1))))) 
(and (or (<= (+ x1 0.3720168499) x5) (or (<= (+ x5 0.5944999571) x1) (or (>= (- y1 0.8213149698) y5) (or (>= (- y5 0.6702004524) y1))))) 
(and (or (<= (+ x1 0.3720168499) x6) (or (<= (+ x6 0.3652203145) x1) (or (>= (- y1 0.8213149698) y6) (or (>= (- y6 0.662452638) y1))))) 
(and (or (<= (+ x1 0.3720168499) x7) (or (<= (+ x7 0.5138328272) x1) (or (>= (- y1 0.8213149698) y7) (or (>= (- y7 0.6406551297) y1))))) 
(and (or (<= (+ x1 0.3720168499) x8) (or (<= (+ x8 0.505512564) x1) (or (>= (- y1 0.8213149698) y8) (or (>= (- y8 0.4433082699) y1))))) 
(and (or (<= (+ x1 0.3720168499) x9) (or (<= (+ x9 0.8324117189) x1) (or (>= (- y1 0.8213149698) y9) (or (>= (- y9 0.3682028427) y1))))) 
(and (or (<= (+ x1 0.3720168499) x10) (or (<= (+ x10 0.1062206365) x1) (or (>= (- y1 0.8213149698) y10) (or (>= (- y10 0.3111864173) y1))))) 
(and (or (<= (+ x1 0.3720168499) x11) (or (<= (+ x11 0.6790325209) x1) (or (>= (- y1 0.8213149698) y11) (or (>= (- y11 0.3068331627) y1))))) 
(and (or (<= (+ x1 0.3720168499) x12) (or (<= (+ x12 0.3820422413) x1) (or (>= (- y1 0.8213149698) y12) (or (>= (- y12 0.2388430996) y1))))) 
(and (or (<= (+ x1 0.3720168499) x13) (or (<= (+ x13 0.6596612972) x1) (or (>= (- y1 0.8213149698) y13) (or (>= (- y13 0.0212762407) y1))))) 
(and (or (<= (+ x1 0.3720168499) x14) (or (<= (+ x14 0.7082317193) x1) (or (>= (- y1 0.8213149698) y14) (or (>= (- y14 0.0192467805) y1))))) 
(and (or (<= (+ x2 0.2871063082) x3) (or (<= (+ x3 0.2712745785) x2) (or (>= (- y2 0.7412308572) y3) (or (>= (- y3 0.7035296864) y2))))) 
(and (or (<= (+ x2 0.2871063082) x4) (or (<= (+ x4 0.1902572445) x2) (or (>= (- y2 0.7412308572) y4) (or (>= (- y4 0.6793844305) y2))))) 
(and (or (<= (+ x2 0.2871063082) x5) (or (<= (+ x5 0.5944999571) x2) (or (>= (- y2 0.7412308572) y5) (or (>= (- y5 0.6702004524) y2))))) 
(and (or (<= (+ x2 0.2871063082) x6) (or (<= (+ x6 0.3652203145) x2) (or (>= (- y2 0.7412308572) y6) (or (>= (- y6 0.662452638) y2))))) 
(and (or (<= (+ x2 0.2871063082) x7) (or (<= (+ x7 0.5138328272) x2) (or (>= (- y2 0.7412308572) y7) (or (>= (- y7 0.6406551297) y2))))) 
(and (or (<= (+ x2 0.2871063082) x8) (or (<= (+ x8 0.505512564) x2) (or (>= (- y2 0.7412308572) y8) (or (>= (- y8 0.4433082699) y2))))) 
(and (or (<= (+ x2 0.2871063082) x9) (or (<= (+ x9 0.8324117189) x2) (or (>= (- y2 0.7412308572) y9) (or (>= (- y9 0.3682028427) y2))))) 
(and (or (<= (+ x2 0.2871063082) x10) (or (<= (+ x10 0.1062206365) x2) (or (>= (- y2 0.7412308572) y10) (or (>= (- y10 0.3111864173) y2))))) 
(and (or (<= (+ x2 0.2871063082) x11) (or (<= (+ x11 0.6790325209) x2) (or (>= (- y2 0.7412308572) y11) (or (>= (- y11 0.3068331627) y2))))) 
(and (or (<= (+ x2 0.2871063082) x12) (or (<= (+ x12 0.3820422413) x2) (or (>= (- y2 0.7412308572) y12) (or (>= (- y12 0.2388430996) y2))))) 
(and (or (<= (+ x2 0.2871063082) x13) (or (<= (+ x13 0.6596612972) x2) (or (>= (- y2 0.7412308572) y13) (or (>= (- y13 0.0212762407) y2))))) 
(and (or (<= (+ x2 0.2871063082) x14) (or (<= (+ x14 0.7082317193) x2) (or (>= (- y2 0.7412308572) y14) (or (>= (- y14 0.0192467805) y2))))) 
(and (or (<= (+ x3 0.2712745785) x4) (or (<= (+ x4 0.1902572445) x3) (or (>= (- y3 0.7035296864) y4) (or (>= (- y4 0.6793844305) y3))))) 
(and (or (<= (+ x3 0.2712745785) x5) (or (<= (+ x5 0.5944999571) x3) (or (>= (- y3 0.7035296864) y5) (or (>= (- y5 0.6702004524) y3))))) 
(and (or (<= (+ x3 0.2712745785) x6) (or (<= (+ x6 0.3652203145) x3) (or (>= (- y3 0.7035296864) y6) (or (>= (- y6 0.662452638) y3))))) 
(and (or (<= (+ x3 0.2712745785) x7) (or (<= (+ x7 0.5138328272) x3) (or (>= (- y3 0.7035296864) y7) (or (>= (- y7 0.6406551297) y3))))) 
(and (or (<= (+ x3 0.2712745785) x8) (or (<= (+ x8 0.505512564) x3) (or (>= (- y3 0.7035296864) y8) (or (>= (- y8 0.4433082699) y3))))) 
(and (or (<= (+ x3 0.2712745785) x9) (or (<= (+ x9 0.8324117189) x3) (or (>= (- y3 0.7035296864) y9) (or (>= (- y9 0.3682028427) y3))))) 
(and (or (<= (+ x3 0.2712745785) x10) (or (<= (+ x10 0.1062206365) x3) (or (>= (- y3 0.7035296864) y10) (or (>= (- y10 0.3111864173) y3))))) 
(and (or (<= (+ x3 0.2712745785) x11) (or (<= (+ x11 0.6790325209) x3) (or (>= (- y3 0.7035296864) y11) (or (>= (- y11 0.3068331627) y3))))) 
(and (or (<= (+ x3 0.2712745785) x12) (or (<= (+ x12 0.3820422413) x3) (or (>= (- y3 0.7035296864) y12) (or (>= (- y12 0.2388430996) y3))))) 
(and (or (<= (+ x3 0.2712745785) x13) (or (<= (+ x13 0.6596612972) x3) (or (>= (- y3 0.7035296864) y13) (or (>= (- y13 0.0212762407) y3))))) 
(and (or (<= (+ x3 0.2712745785) x14) (or (<= (+ x14 0.7082317193) x3) (or (>= (- y3 0.7035296864) y14) (or (>= (- y14 0.0192467805) y3))))) 
(and (or (<= (+ x4 0.1902572445) x5) (or (<= (+ x5 0.5944999571) x4) (or (>= (- y4 0.6793844305) y5) (or (>= (- y5 0.6702004524) y4))))) 
(and (or (<= (+ x4 0.1902572445) x6) (or (<= (+ x6 0.3652203145) x4) (or (>= (- y4 0.6793844305) y6) (or (>= (- y6 0.662452638) y4))))) 
(and (or (<= (+ x4 0.1902572445) x7) (or (<= (+ x7 0.5138328272) x4) (or (>= (- y4 0.6793844305) y7) (or (>= (- y7 0.6406551297) y4))))) 
(and (or (<= (+ x4 0.1902572445) x8) (or (<= (+ x8 0.505512564) x4) (or (>= (- y4 0.6793844305) y8) (or (>= (- y8 0.4433082699) y4))))) 
(and (or (<= (+ x4 0.1902572445) x9) (or (<= (+ x9 0.8324117189) x4) (or (>= (- y4 0.6793844305) y9) (or (>= (- y9 0.3682028427) y4))))) 
(and (or (<= (+ x4 0.1902572445) x10) (or (<= (+ x10 0.1062206365) x4) (or (>= (- y4 0.6793844305) y10) (or (>= (- y10 0.3111864173) y4))))) 
(and (or (<= (+ x4 0.1902572445) x11) (or (<= (+ x11 0.6790325209) x4) (or (>= (- y4 0.6793844305) y11) (or (>= (- y11 0.3068331627) y4))))) 
(and (or (<= (+ x4 0.1902572445) x12) (or (<= (+ x12 0.3820422413) x4) (or (>= (- y4 0.6793844305) y12) (or (>= (- y12 0.2388430996) y4))))) 
(and (or (<= (+ x4 0.1902572445) x13) (or (<= (+ x13 0.6596612972) x4) (or (>= (- y4 0.6793844305) y13) (or (>= (- y13 0.0212762407) y4))))) 
(and (or (<= (+ x4 0.1902572445) x14) (or (<= (+ x14 0.7082317193) x4) (or (>= (- y4 0.6793844305) y14) (or (>= (- y14 0.0192467805) y4))))) 
(and (or (<= (+ x5 0.5944999571) x6) (or (<= (+ x6 0.3652203145) x5) (or (>= (- y5 0.6702004524) y6) (or (>= (- y6 0.662452638) y5))))) 
(and (or (<= (+ x5 0.5944999571) x7) (or (<= (+ x7 0.5138328272) x5) (or (>= (- y5 0.6702004524) y7) (or (>= (- y7 0.6406551297) y5))))) 
(and (or (<= (+ x5 0.5944999571) x8) (or (<= (+ x8 0.505512564) x5) (or (>= (- y5 0.6702004524) y8) (or (>= (- y8 0.4433082699) y5))))) 
(and (or (<= (+ x5 0.5944999571) x9) (or (<= (+ x9 0.8324117189) x5) (or (>= (- y5 0.6702004524) y9) (or (>= (- y9 0.3682028427) y5))))) 
(and (or (<= (+ x5 0.5944999571) x10) (or (<= (+ x10 0.1062206365) x5) (or (>= (- y5 0.6702004524) y10) (or (>= (- y10 0.3111864173) y5))))) 
(and (or (<= (+ x5 0.5944999571) x11) (or (<= (+ x11 0.6790325209) x5) (or (>= (- y5 0.6702004524) y11) (or (>= (- y11 0.3068331627) y5))))) 
(and (or (<= (+ x5 0.5944999571) x12) (or (<= (+ x12 0.3820422413) x5) (or (>= (- y5 0.6702004524) y12) (or (>= (- y12 0.2388430996) y5))))) 
(and (or (<= (+ x5 0.5944999571) x13) (or (<= (+ x13 0.6596612972) x5) (or (>= (- y5 0.6702004524) y13) (or (>= (- y13 0.0212762407) y5))))) 
(and (or (<= (+ x5 0.5944999571) x14) (or (<= (+ x14 0.7082317193) x5) (or (>= (- y5 0.6702004524) y14) (or (>= (- y14 0.0192467805) y5))))) 
(and (or (<= (+ x6 0.3652203145) x7) (or (<= (+ x7 0.5138328272) x6) (or (>= (- y6 0.662452638) y7) (or (>= (- y7 0.6406551297) y6))))) 
(and (or (<= (+ x6 0.3652203145) x8) (or (<= (+ x8 0.505512564) x6) (or (>= (- y6 0.662452638) y8) (or (>= (- y8 0.4433082699) y6))))) 
(and (or (<= (+ x6 0.3652203145) x9) (or (<= (+ x9 0.8324117189) x6) (or (>= (- y6 0.662452638) y9) (or (>= (- y9 0.3682028427) y6))))) 
(and (or (<= (+ x6 0.3652203145) x10) (or (<= (+ x10 0.1062206365) x6) (or (>= (- y6 0.662452638) y10) (or (>= (- y10 0.3111864173) y6))))) 
(and (or (<= (+ x6 0.3652203145) x11) (or (<= (+ x11 0.6790325209) x6) (or (>= (- y6 0.662452638) y11) (or (>= (- y11 0.3068331627) y6))))) 
(and (or (<= (+ x6 0.3652203145) x12) (or (<= (+ x12 0.3820422413) x6) (or (>= (- y6 0.662452638) y12) (or (>= (- y12 0.2388430996) y6))))) 
(and (or (<= (+ x6 0.3652203145) x13) (or (<= (+ x13 0.6596612972) x6) (or (>= (- y6 0.662452638) y13) (or (>= (- y13 0.0212762407) y6))))) 
(and (or (<= (+ x6 0.3652203145) x14) (or (<= (+ x14 0.7082317193) x6) (or (>= (- y6 0.662452638) y14) (or (>= (- y14 0.0192467805) y6))))) 
(and (or (<= (+ x7 0.5138328272) x8) (or (<= (+ x8 0.505512564) x7) (or (>= (- y7 0.6406551297) y8) (or (>= (- y8 0.4433082699) y7))))) 
(and (or (<= (+ x7 0.5138328272) x9) (or (<= (+ x9 0.8324117189) x7) (or (>= (- y7 0.6406551297) y9) (or (>= (- y9 0.3682028427) y7))))) 
(and (or (<= (+ x7 0.5138328272) x10) (or (<= (+ x10 0.1062206365) x7) (or (>= (- y7 0.6406551297) y10) (or (>= (- y10 0.3111864173) y7))))) 
(and (or (<= (+ x7 0.5138328272) x11) (or (<= (+ x11 0.6790325209) x7) (or (>= (- y7 0.6406551297) y11) (or (>= (- y11 0.3068331627) y7))))) 
(and (or (<= (+ x7 0.5138328272) x12) (or (<= (+ x12 0.3820422413) x7) (or (>= (- y7 0.6406551297) y12) (or (>= (- y12 0.2388430996) y7))))) 
(and (or (<= (+ x7 0.5138328272) x13) (or (<= (+ x13 0.6596612972) x7) (or (>= (- y7 0.6406551297) y13) (or (>= (- y13 0.0212762407) y7))))) 
(and (or (<= (+ x7 0.5138328272) x14) (or (<= (+ x14 0.7082317193) x7) (or (>= (- y7 0.6406551297) y14) (or (>= (- y14 0.0192467805) y7))))) 
(and (or (<= (+ x8 0.505512564) x9) (or (<= (+ x9 0.8324117189) x8) (or (>= (- y8 0.4433082699) y9) (or (>= (- y9 0.3682028427) y8))))) 
(and (or (<= (+ x8 0.505512564) x10) (or (<= (+ x10 0.1062206365) x8) (or (>= (- y8 0.4433082699) y10) (or (>= (- y10 0.3111864173) y8))))) 
(and (or (<= (+ x8 0.505512564) x11) (or (<= (+ x11 0.6790325209) x8) (or (>= (- y8 0.4433082699) y11) (or (>= (- y11 0.3068331627) y8))))) 
(and (or (<= (+ x8 0.505512564) x12) (or (<= (+ x12 0.3820422413) x8) (or (>= (- y8 0.4433082699) y12) (or (>= (- y12 0.2388430996) y8))))) 
(and (or (<= (+ x8 0.505512564) x13) (or (<= (+ x13 0.6596612972) x8) (or (>= (- y8 0.4433082699) y13) (or (>= (- y13 0.0212762407) y8))))) 
(and (or (<= (+ x8 0.505512564) x14) (or (<= (+ x14 0.7082317193) x8) (or (>= (- y8 0.4433082699) y14) (or (>= (- y14 0.0192467805) y8))))) 
(and (or (<= (+ x9 0.8324117189) x10) (or (<= (+ x10 0.1062206365) x9) (or (>= (- y9 0.3682028427) y10) (or (>= (- y10 0.3111864173) y9))))) 
(and (or (<= (+ x9 0.8324117189) x11) (or (<= (+ x11 0.6790325209) x9) (or (>= (- y9 0.3682028427) y11) (or (>= (- y11 0.3068331627) y9))))) 
(and (or (<= (+ x9 0.8324117189) x12) (or (<= (+ x12 0.3820422413) x9) (or (>= (- y9 0.3682028427) y12) (or (>= (- y12 0.2388430996) y9))))) 
(and (or (<= (+ x9 0.8324117189) x13) (or (<= (+ x13 0.6596612972) x9) (or (>= (- y9 0.3682028427) y13) (or (>= (- y13 0.0212762407) y9))))) 
(and (or (<= (+ x9 0.8324117189) x14) (or (<= (+ x14 0.7082317193) x9) (or (>= (- y9 0.3682028427) y14) (or (>= (- y14 0.0192467805) y9))))) 
(and (or (<= (+ x10 0.1062206365) x11) (or (<= (+ x11 0.6790325209) x10) (or (>= (- y10 0.3111864173) y11) (or (>= (- y11 0.3068331627) y10))))) 
(and (or (<= (+ x10 0.1062206365) x12) (or (<= (+ x12 0.3820422413) x10) (or (>= (- y10 0.3111864173) y12) (or (>= (- y12 0.2388430996) y10))))) 
(and (or (<= (+ x10 0.1062206365) x13) (or (<= (+ x13 0.6596612972) x10) (or (>= (- y10 0.3111864173) y13) (or (>= (- y13 0.0212762407) y10))))) 
(and (or (<= (+ x10 0.1062206365) x14) (or (<= (+ x14 0.7082317193) x10) (or (>= (- y10 0.3111864173) y14) (or (>= (- y14 0.0192467805) y10))))) 
(and (or (<= (+ x11 0.6790325209) x12) (or (<= (+ x12 0.3820422413) x11) (or (>= (- y11 0.3068331627) y12) (or (>= (- y12 0.2388430996) y11))))) 
(and (or (<= (+ x11 0.6790325209) x13) (or (<= (+ x13 0.6596612972) x11) (or (>= (- y11 0.3068331627) y13) (or (>= (- y13 0.0212762407) y11))))) 
(and (or (<= (+ x11 0.6790325209) x14) (or (<= (+ x14 0.7082317193) x11) (or (>= (- y11 0.3068331627) y14) (or (>= (- y14 0.0192467805) y11))))) 
(and (or (<= (+ x12 0.3820422413) x13) (or (<= (+ x13 0.6596612972) x12) (or (>= (- y12 0.2388430996) y13) (or (>= (- y13 0.0212762407) y12))))) 
(and (or (<= (+ x12 0.3820422413) x14) (or (<= (+ x14 0.7082317193) x12) (or (>= (- y12 0.2388430996) y14) (or (>= (- y14 0.0192467805) y12))))) 
(and (or (<= (+ x13 0.6596612972) x14) (or (<= (+ x14 0.7082317193) x13) (or (>= (- y13 0.0212762407) y14) (or (>= (- y14 0.0192467805) y13))))) )))))))))))))))))))))))))))))))))))))))))))))))))))))))))))))))))))))))))))))))))))))))))))))))))))))))))))))))))))))))))))))))))))))))))))))))))))))))))))))))))))))))))))))))))))))))))))))))))))))))))))))))))))))))
(minimize c)
(check-sat)
(get-objectives)
(exit)
